%%%mzn-stat: initTime=0.00397499
%%%mzn-stat: objective=377
%%%mzn-stat: nodes=1135
%%%mzn-stat: restarts=0
%%%mzn-stat: peakDepth=96
%%%mzn-stat: solveTime=0.063380379
%%%mzn-stat: variables=366
%%%mzn-stat: propagators=251
%%%mzn-stat: failures=588
%%%mzn-stat: propagations=80999
%%%mzn-stat: nogoods=588
%%%mzn-stat: AverageConflictSize=12.314625850340136
%%%mzn-stat: NumUnitNogoodsLearned=376
%%%mzn-stat: AverageLearnedNogoodLength=9.289115646258503
%%%mzn-stat: AverageBacktrackAmount=0
%%%mzn-stat: AverageLbd=2.372448979591837
%%%mzn-stat-end
maxleg = 377;
succ = array1d(1..20,[8, 13, 15, 2, 16, 1, 3, 4, 19, 20, 10, 5, 7, 6, 9, 14, 11, 12, 17, 18]);
% time elapsed: 1.25 s
----------
==========
% time elapsed: 1.25 s
%%%mzn-stat: initTime=0.00397499
%%%mzn-stat: objective=377
%%%mzn-stat: nodes=1135
%%%mzn-stat: restarts=0
%%%mzn-stat: peakDepth=96
%%%mzn-stat: solveTime=0.063383536
%%%mzn-stat: variables=366
%%%mzn-stat: propagators=251
%%%mzn-stat: failures=588
%%%mzn-stat: propagations=80999
%%%mzn-stat: nogoods=588
%%%mzn-stat: AverageConflictSize=12.314625850340136
%%%mzn-stat: NumUnitNogoodsLearned=376
%%%mzn-stat: AverageLearnedNogoodLength=9.289115646258503
%%%mzn-stat: AverageBacktrackAmount=0
%%%mzn-stat: AverageLbd=2.372448979591837
%%%mzn-stat-end
